1 1 -2 0
1 3 -4 0
1 3 -5 0
1 -6 -7 0
1 6 -1 0
1 6 2 0
1 -8 -7 0
1 8 9 0
1 8 -10 0
1 -10 -8 0
1 -11 12 0
1 -11 13 0
1 13 -14 0
1 5 6 0
1 -14 -15 0
1 14 5 0
1 -16 4 0
1 16 17 0
1 -16 18 0
1 19 -20 0
1 21 14 0
1 -22 21 0
1 23 15 0
1 -23 5 0
1 -24 25 0
1 24 -26 0
1 27 -28 0
1 -27 -29 0
1 -30 -31 0
1 -30 -32 0
1 30 26 0
1 -33 27 0
1 34 30 0
1 35 -26 0
1 -35 36 0
1 -37 -33 0
1 9 31 0
1 -9 -28 0
1 -31 38 0
1 -31 39 0
1 -40 9 0
1 -40 41 0
1 -42 -28 0
1 -42 -37 0
1 28 37 0
1 28 -43 0
1 -20 40 0
1 38 -44 0
1 -38 45 0
1 46 -38 0
1 47 -48 0
1 17 16 0
1 -17 -49 0
1 17 45 0
1 -18 14 0
1 -50 51 0
1 50 52 0
1 -50 45 0
1 45 53 0
1 54 -55 0
1 -54 56 0
1 57 58 0
1 57 59 0
1 59 57 0
1 -60 -61 0
1 62 60 0
1 -62 63 0
1 -62 -64 0
1 -65 -66 0
1 65 -67 0
1 -68 -69 0
1 58 -70 0
1 71 16 0
1 -71 -66 0
1 71 53 0
1 -67 -72 0
1 -67 -56 0
1 67 73 0
1 74 65 0
1 -73 75 0
1 -61 -72 0
1 76 -66 0
1 25 77 0
1 -29 78 0
1 -29 27 0
1 -32 79 0
1 -80 -25 0
1 81 26 0
1 -82 77 0
1 -83 84 0
1 83 37 0
1 -85 -77 0
1 -85 86 0
1 -85 -84 0
1 87 88 0
1 -87 81 0
1 -87 -89 0
1 -84 88 0
1 86 85 0
1 36 -33 0
1 -36 42 0
1 36 -20 0
1 90 -7 0
1 91 -92 0
1 -44 93 0
1 44 42 0
1 44 -94 0
1 -93 95 0
1 95 -96 0
1 -95 97 0
1 -98 -99 0
1 94 -44 0
1 -94 98 0
1 -97 99 0
1 -96 -100 0
1 96 -92 0
1 101 -102 0
1 101 103 0
1 -101 -104 0
1 -101 47 0
1 105 -104 0
1 -100 -106 0
1 103 -100 0
1 -103 107 0
1 -92 -108 0
1 48 -109 0
1 107 54 0
1 55 -100 0
1 -55 -110 0
1 -64 -45 0
1 39 104 0
1 39 -107 0
1 -104 -53 0
1 -104 107 0
1 -109 -106 0
1 -109 -48 0
1 109 -101 0
1 53 -72 0
1 53 106 0
1 -53 45 0
1 56 104 0
1 -56 -54 0
1 -111 -112 0
1 111 113 0
1 -113 71 0
1 113 -39 0
1 -114 53 0
1 114 115 0
1 -116 117 0
1 -116 -114 0
1 116 56 0
1 118 56 0
1 -119 120 0
1 -66 121 0
1 66 -58 0
1 -117 122 0
1 117 114 0
1 117 -123 0
1 117 76 0
1 -117 116 0
1 -124 69 0
1 -125 -111 0
1 125 -124 0
1 -125 -126 0
1 121 -127 0
1 -128 129 0
1 130 -131 0
1 -130 122 0
1 -130 73 0
1 -132 122 0
1 -133 -134 0
1 -69 -135 0
1 69 132 0
1 69 -133 0
1 70 -130 0
1 -70 136 0
1 -137 117 0
1 137 133 0
1 -138 -139 0
1 140 -69 0
1 -140 -123 0
1 -140 -139 0
1 141 -123 0
1 141 134 0
1 -141 -139 0
1 -135 142 0
1 -135 141 0
1 134 -143 0
1 144 145 0
1 -146 147 0
1 -146 -148 0
1 149 -150 0
1 -79 32 0
1 -79 -151 0
1 -147 -152 0
1 147 -151 0
1 151 -147 0
1 151 149 0
1 -153 81 0
1 154 80 0
1 -154 -155 0
1 -156 -157 0
1 155 158 0
1 155 -159 0
1 -160 154 0
1 -161 158 0
1 -161 159 0
1 -162 163 0
1 164 155 0
1 -164 165 0
1 166 -167 0
1 165 164 0
1 -165 166 0
1 -157 -168 0
1 163 -158 0
1 -169 164 0
1 169 170 0
1 -99 88 0
1 -99 165 0
1 88 -158 0
1 171 167 0
1 -171 89 0
1 -167 -172 0
1 -167 -173 0
1 -174 77 0
1 -174 -168 0
1 174 -99 0
1 -174 173 0
1 -175 -176 0
1 -175 172 0
1 177 -178 0
1 108 -167 0
1 -108 -89 0
1 173 179 0
1 173 107 0
1 110 55 0
1 -110 180 0
1 181 -182 0
1 -181 -183 0
1 -184 -106 0
1 185 186 0
1 -185 168 0
1 179 -187 0
1 -179 168 0
1 106 92 0
1 -106 -89 0
1 -188 -92 0
1 188 109 0
1 -188 189 0
1 112 190 0
1 112 -183 0
1 -191 109 0
1 190 180 0
1 190 -191 0
1 -183 192 0
1 -183 -191 0
1 -193 194 0
1 193 -118 0
1 193 104 0
1 -195 196 0
1 -195 197 0
1 -198 194 0
1 194 197 0
1 197 103 0
1 -199 -193 0
1 -199 200 0
1 200 -201 0
1 131 -114 0
1 -131 -128 0
1 -115 -132 0
1 202 203 0
1 204 -127 0
1 -204 -197 0
1 -205 -131 0
1 -203 -205 0
1 -206 207 0
1 208 109 0
1 -209 -70 0
1 210 209 0
1 211 -137 0
1 211 212 0
1 -211 213 0
1 -136 129 0
1 214 215 0
1 214 216 0
1 -216 136 0
1 216 217 0
1 218 -212 0
1 -218 -204 0
1 -219 -220 0
1 -219 -216 0
1 221 -222 0
1 -221 -123 0
1 215 214 0
1 -223 -224 0
1 223 225 0
1 -126 211 0
1 -222 -223 0
1 -222 211 0
1 -220 219 0
1 -129 -226 0
1 -227 145 0
1 -227 228 0
1 229 -126 0
1 -230 -231 0
1 230 232 0
1 230 -233 0
1 228 -227 0
1 -228 -215 0
1 225 234 0
1 235 230 0
1 235 236 0
1 -224 -237 0
1 224 -238 0
1 -234 -239 0
1 -234 -240 0
1 241 236 0
1 -242 225 0
1 143 -229 0
1 -231 -234 0
1 243 152 0
1 244 245 0
1 246 247 0
1 245 -244 0
1 245 248 0
1 -249 250 0
1 170 -173 0
1 -251 -177 0
1 -251 252 0
1 -251 -253 0
1 254 255 0
1 254 252 0
1 254 -181 0
1 250 -249 0
1 256 -251 0
1 256 249 0
1 257 244 0
1 -257 -258 0
1 -253 -251 0
1 253 -257 0
1 -253 247 0
1 189 259 0
1 189 -174 0
1 189 -179 0
1 186 179 0
1 260 -255 0
1 -260 -179 0
1 -260 -191 0
1 -252 -261 0
1 252 259 0
1 252 262 0
1 -259 -254 0
1 -263 -172 0
1 263 163 0
1 263 -264 0
1 255 -169 0
1 -265 -179 0
1 196 265 0
1 -196 -266 0
1 -196 184 0
1 -196 267 0
1 -268 -120 0
1 192 259 0
1 -192 -266 0
1 -192 198 0
1 -269 270 0
1 -269 -265 0
1 -269 -167 0
1 -266 -192 0
1 -266 271 0
1 267 262 0
1 -178 272 0
1 -178 273 0
1 -178 -262 0
1 178 -196 0
1 -270 199 0
1 -274 -270 0
1 274 275 0
1 -276 277 0
1 -276 278 0
1 -278 279 0
1 280 275 0
1 275 201 0
1 281 -276 0
1 -281 -192 0
1 187 -268 0
1 -187 274 0
1 -201 199 0
1 201 206 0
1 -213 -206 0
1 -282 136 0
1 282 -208 0
1 283 -207 0
1 283 278 0
1 -284 -285 0
1 -284 201 0
1 284 -278 0
1 279 -278 0
1 -279 -213 0
1 286 -277 0
1 286 287 0
1 -207 -206 0
1 -207 212 0
1 -207 -208 0
1 -288 289 0
1 288 290 0
1 288 -218 0
1 -288 -291 0
1 -292 -283 0
1 292 288 0
1 293 292 0
1 293 294 0
1 293 -288 0
1 -287 -292 0
1 287 -288 0
1 -289 -199 0
1 290 -207 0
1 290 294 0
1 -217 227 0
1 217 216 0
1 226 -295 0
1 -226 220 0
1 -226 -287 0
1 -226 218 0
1 296 -297 0
1 296 -298 0
1 299 129 0
1 -299 300 0
1 -299 287 0
1 -301 -205 0
1 -298 296 0
1 295 302 0
1 295 294 0
1 295 -217 0
1 239 -222 0
1 -237 -303 0
1 -303 237 0
1 304 236 0
1 -305 265 0
1 305 263 0
1 306 -250 0
1 306 -196 0
1 306 253 0
1 -264 -307 0
1 -308 -262 0
1 -309 -310 0
1 261 259 0
1 262 -178 0
1 -262 -267 0
1 -311 178 0
1 312 -313 0
1 -312 -250 0
1 -314 261 0
1 314 273 0
1 258 -315 0
1 -258 311 0
1 307 253 0
1 307 -258 0
1 -271 -266 0
1 -271 -187 0
1 271 -273 0
1 -273 178 0
1 -273 -269 0
1 313 272 0
1 313 -316 0
1 317 318 0
1 317 -263 0
1 317 319 0
1 317 -271 0
1 320 -318 0
1 320 273 0
1 321 272 0
1 321 -187 0
1 285 322 0
1 -323 -324 0
1 325 -326 0
1 316 285 0
1 327 -316 0
1 -327 328 0
1 322 -329 0
1 -322 328 0
1 272 330 0
1 272 323 0
1 331 327 0
1 332 -333 0
1 -332 -334 0
1 -332 -279 0
1 335 -336 0
1 -335 334 0
1 -335 -337 0
1 -335 -338 0
1 335 339 0
1 300 -336 0
1 340 -323 0
1 -341 -332 0
1 294 -295 0
1 342 -302 0
1 342 343 0
1 -336 302 0
1 -344 -320 0
1 -344 -345 0
1 -326 -346 0
1 345 -347 0
1 -346 345 0
1 348 -344 0
1 348 349 0
1 -333 324 0
1 329 350 0
1 351 -333 0
1 -352 -326 0
1 -352 -344 0
1 353 354 0
1 353 351 0
1 353 -355 0
1 -353 -356 0
1 330 339 0
1 -357 358 0
1 356 -354 0
1 -354 353 0
1 355 -353 0
1 350 357 0
